c Este es el tablero 0 en CNF
p cnf 729 729
5 0 12 0 22 0 33 0 43 0 53 0 63 0 64 0 74 0 87 0 97 0 101 0 109 0 126 0 131 0 138 0 148 0 161 0 163 0 180 0 188 0 192 0 202 0 209 0 231 0 241 0 251 0 257 0 270 0 277 0 285 0 289 0 301 0 308 0 318 0 328 0 335 0 348 0 359 0 365 0 372 0 385 0 397 0 412 0 415 0 426 0 441 0 443 0 467 0 473 0 483 0 495 0 501 0 505 0 518 0 525 0 538 0 542 0 557 0 562 0 569 0 584 0 592 0 598 0 604 0 621 0 627 0 633 0 644 0 651 0 661 0 671 0 677 0 692 0 699 0 703 0 718 0 729 0
217 218 219 220 221 222 223 224 225 0 
388 389 390 391 392 393 394 395 396 0 
451 452 453 454 455 456 457 458 459 0 
-217 -163 0 -217 -172 0 -217 -181 0 -217 -190 0 -217 -199 0 -217 -208 0 -217 -226 0 -217 -235 0 -218 -164 0 -218 -173 0 -218 -182 0 -218 -191 0 -218 -200 0 -218 -209 0 -218 -227 0 -218 -236 0 -219 -165 0 -219 -174 0 -219 -183 0 -219 -192 0 -219 -201 0 -219 -210 0 -219 -228 0 -219 -237 0 -220 -166 0 -220 -175 0 -220 -184 0 -220 -193 0 -220 -202 0 -220 -211 0 -220 -229 0 -220 -238 0 -221 -167 0 -221 -176 0 -221 -185 0 -221 -194 0 -221 -203 0 -221 -212 0 -221 -230 0 -221 -239 0 -222 -168 0 -222 -177 0 -222 -186 0 -222 -195 0 -222 -204 0 -222 -213 0 -222 -231 0 -222 -240 0 -223 -169 0 -223 -178 0 -223 -187 0 -223 -196 0 -223 -205 0 -223 -214 0 -223 -232 0 -223 -241 0 -224 -170 0 -224 -179 0 -224 -188 0 -224 -197 0 -224 -206 0 -224 -215 0 -224 -233 0 -224 -242 0 -225 -171 0 -225 -180 0 -225 -189 0 -225 -198 0 -225 -207 0 -225 -216 0 -225 -234 0 -225 -243 0 
-388 -325 0 -388 -334 0 -388 -343 0 -388 -352 0 -388 -361 0 -388 -370 0 -388 -379 0 -388 -397 0 -389 -326 0 -389 -335 0 -389 -344 0 -389 -353 0 -389 -362 0 -389 -371 0 -389 -380 0 -389 -398 0 -390 -327 0 -390 -336 0 -390 -345 0 -390 -354 0 -390 -363 0 -390 -372 0 -390 -381 0 -390 -399 0 -391 -328 0 -391 -337 0 -391 -346 0 -391 -355 0 -391 -364 0 -391 -373 0 -391 -382 0 -391 -400 0 -392 -329 0 -392 -338 0 -392 -347 0 -392 -356 0 -392 -365 0 -392 -374 0 -392 -383 0 -392 -401 0 -393 -330 0 -393 -339 0 -393 -348 0 -393 -357 0 -393 -366 0 -393 -375 0 -393 -384 0 -393 -402 0 -394 -331 0 -394 -340 0 -394 -349 0 -394 -358 0 -394 -367 0 -394 -376 0 -394 -385 0 -394 -403 0 -395 -332 0 -395 -341 0 -395 -350 0 -395 -359 0 -395 -368 0 -395 -377 0 -395 -386 0 -395 -404 0 -396 -333 0 -396 -342 0 -396 -351 0 -396 -360 0 -396 -369 0 -396 -378 0 -396 -387 0 -396 -405 0 
-451 -406 0 -451 -415 0 -451 -424 0 -451 -433 0 -451 -442 0 -451 -460 0 -451 -469 0 -451 -478 0 -452 -407 0 -452 -416 0 -452 -425 0 -452 -434 0 -452 -443 0 -452 -461 0 -452 -470 0 -452 -479 0 -453 -408 0 -453 -417 0 -453 -426 0 -453 -435 0 -453 -444 0 -453 -462 0 -453 -471 0 -453 -480 0 -454 -409 0 -454 -418 0 -454 -427 0 -454 -436 0 -454 -445 0 -454 -463 0 -454 -472 0 -454 -481 0 -455 -410 0 -455 -419 0 -455 -428 0 -455 -437 0 -455 -446 0 -455 -464 0 -455 -473 0 -455 -482 0 -456 -411 0 -456 -420 0 -456 -429 0 -456 -438 0 -456 -447 0 -456 -465 0 -456 -474 0 -456 -483 0 -457 -412 0 -457 -421 0 -457 -430 0 -457 -439 0 -457 -448 0 -457 -466 0 -457 -475 0 -457 -484 0 -458 -413 0 -458 -422 0 -458 -431 0 -458 -440 0 -458 -449 0 -458 -467 0 -458 -476 0 -458 -485 0 -459 -414 0 -459 -423 0 -459 -432 0 -459 -441 0 -459 -450 0 -459 -468 0 -459 -477 0 -459 -486 0 
-217 -55 0 -217 -136 0 -217 -298 0 -217 -379 0 -217 -460 0 -217 -541 0 -217 -622 0 -217 -703 0 -218 -56 0 -218 -137 0 -218 -299 0 -218 -380 0 -218 -461 0 -218 -542 0 -218 -623 0 -218 -704 0 -219 -57 0 -219 -138 0 -219 -300 0 -219 -381 0 -219 -462 0 -219 -543 0 -219 -624 0 -219 -705 0 -220 -58 0 -220 -139 0 -220 -301 0 -220 -382 0 -220 -463 0 -220 -544 0 -220 -625 0 -220 -706 0 -221 -59 0 -221 -140 0 -221 -302 0 -221 -383 0 -221 -464 0 -221 -545 0 -221 -626 0 -221 -707 0 -222 -60 0 -222 -141 0 -222 -303 0 -222 -384 0 -222 -465 0 -222 -546 0 -222 -627 0 -222 -708 0 -223 -61 0 -223 -142 0 -223 -304 0 -223 -385 0 -223 -466 0 -223 -547 0 -223 -628 0 -223 -709 0 -224 -62 0 -224 -143 0 -224 -305 0 -224 -386 0 -224 -467 0 -224 -548 0 -224 -629 0 -224 -710 0 -225 -63 0 -225 -144 0 -225 -306 0 -225 -387 0 -225 -468 0 -225 -549 0 -225 -630 0 -225 -711 0 
-388 -64 0 -388 -145 0 -388 -226 0 -388 -307 0 -388 -469 0 -388 -550 0 -388 -631 0 -388 -712 0 -389 -65 0 -389 -146 0 -389 -227 0 -389 -308 0 -389 -470 0 -389 -551 0 -389 -632 0 -389 -713 0 -390 -66 0 -390 -147 0 -390 -228 0 -390 -309 0 -390 -471 0 -390 -552 0 -390 -633 0 -390 -714 0 -391 -67 0 -391 -148 0 -391 -229 0 -391 -310 0 -391 -472 0 -391 -553 0 -391 -634 0 -391 -715 0 -392 -68 0 -392 -149 0 -392 -230 0 -392 -311 0 -392 -473 0 -392 -554 0 -392 -635 0 -392 -716 0 -393 -69 0 -393 -150 0 -393 -231 0 -393 -312 0 -393 -474 0 -393 -555 0 -393 -636 0 -393 -717 0 -394 -70 0 -394 -151 0 -394 -232 0 -394 -313 0 -394 -475 0 -394 -556 0 -394 -637 0 -394 -718 0 -395 -71 0 -395 -152 0 -395 -233 0 -395 -314 0 -395 -476 0 -395 -557 0 -395 -638 0 -395 -719 0 -396 -72 0 -396 -153 0 -396 -234 0 -396 -315 0 -396 -477 0 -396 -558 0 -396 -639 0 -396 -720 0 
-451 -46 0 -451 -127 0 -451 -208 0 -451 -289 0 -451 -370 0 -451 -532 0 -451 -613 0 -451 -694 0 -452 -47 0 -452 -128 0 -452 -209 0 -452 -290 0 -452 -371 0 -452 -533 0 -452 -614 0 -452 -695 0 -453 -48 0 -453 -129 0 -453 -210 0 -453 -291 0 -453 -372 0 -453 -534 0 -453 -615 0 -453 -696 0 -454 -49 0 -454 -130 0 -454 -211 0 -454 -292 0 -454 -373 0 -454 -535 0 -454 -616 0 -454 -697 0 -455 -50 0 -455 -131 0 -455 -212 0 -455 -293 0 -455 -374 0 -455 -536 0 -455 -617 0 -455 -698 0 -456 -51 0 -456 -132 0 -456 -213 0 -456 -294 0 -456 -375 0 -456 -537 0 -456 -618 0 -456 -699 0 -457 -52 0 -457 -133 0 -457 -214 0 -457 -295 0 -457 -376 0 -457 -538 0 -457 -619 0 -457 -700 0 -458 -53 0 -458 -134 0 -458 -215 0 -458 -296 0 -458 -377 0 -458 -539 0 -458 -620 0 -458 -701 0 -459 -54 0 -459 -135 0 -459 -216 0 -459 -297 0 -459 -378 0 -459 -540 0 -459 -621 0 -459 -702 0 
-217 -55 0 -217 -64 0 -217 -73 0 -217 -136 0 -217 -145 0 -217 -154 0 -217 -226 0 -217 -235 0 -218 -56 0 -218 -65 0 -218 -74 0 -218 -137 0 -218 -146 0 -218 -155 0 -218 -227 0 -218 -236 0 -219 -57 0 -219 -66 0 -219 -75 0 -219 -138 0 -219 -147 0 -219 -156 0 -219 -228 0 -219 -237 0 -220 -58 0 -220 -67 0 -220 -76 0 -220 -139 0 -220 -148 0 -220 -157 0 -220 -229 0 -220 -238 0 -221 -59 0 -221 -68 0 -221 -77 0 -221 -140 0 -221 -149 0 -221 -158 0 -221 -230 0 -221 -239 0 -222 -60 0 -222 -69 0 -222 -78 0 -222 -141 0 -222 -150 0 -222 -159 0 -222 -231 0 -222 -240 0 -223 -61 0 -223 -70 0 -223 -79 0 -223 -142 0 -223 -151 0 -223 -160 0 -223 -232 0 -223 -241 0 -224 -62 0 -224 -71 0 -224 -80 0 -224 -143 0 -224 -152 0 -224 -161 0 -224 -233 0 -224 -242 0 -225 -63 0 -225 -72 0 -225 -81 0 -225 -144 0 -225 -153 0 -225 -162 0 -225 -234 0 -225 -243 0 
-388 -298 0 -388 -307 0 -388 -316 0 -388 -379 0 -388 -397 0 -388 -460 0 -388 -469 0 -388 -478 0 -389 -299 0 -389 -308 0 -389 -317 0 -389 -380 0 -389 -398 0 -389 -461 0 -389 -470 0 -389 -479 0 -390 -300 0 -390 -309 0 -390 -318 0 -390 -381 0 -390 -399 0 -390 -462 0 -390 -471 0 -390 -480 0 -391 -301 0 -391 -310 0 -391 -319 0 -391 -382 0 -391 -400 0 -391 -463 0 -391 -472 0 -391 -481 0 -392 -302 0 -392 -311 0 -392 -320 0 -392 -383 0 -392 -401 0 -392 -464 0 -392 -473 0 -392 -482 0 -393 -303 0 -393 -312 0 -393 -321 0 -393 -384 0 -393 -402 0 -393 -465 0 -393 -474 0 -393 -483 0 -394 -304 0 -394 -313 0 -394 -322 0 -394 -385 0 -394 -403 0 -394 -466 0 -394 -475 0 -394 -484 0 -395 -305 0 -395 -314 0 -395 -323 0 -395 -386 0 -395 -404 0 -395 -467 0 -395 -476 0 -395 -485 0 -396 -306 0 -396 -315 0 -396 -324 0 -396 -387 0 -396 -405 0 -396 -468 0 -396 -477 0 -396 -486 0 
-451 -271 0 -451 -280 0 -451 -289 0 -451 -352 0 -451 -361 0 -451 -370 0 -451 -433 0 -451 -442 0 -452 -272 0 -452 -281 0 -452 -290 0 -452 -353 0 -452 -362 0 -452 -371 0 -452 -434 0 -452 -443 0 -453 -273 0 -453 -282 0 -453 -291 0 -453 -354 0 -453 -363 0 -453 -372 0 -453 -435 0 -453 -444 0 -454 -274 0 -454 -283 0 -454 -292 0 -454 -355 0 -454 -364 0 -454 -373 0 -454 -436 0 -454 -445 0 -455 -275 0 -455 -284 0 -455 -293 0 -455 -356 0 -455 -365 0 -455 -374 0 -455 -437 0 -455 -446 0 -456 -276 0 -456 -285 0 -456 -294 0 -456 -357 0 -456 -366 0 -456 -375 0 -456 -438 0 -456 -447 0 -457 -277 0 -457 -286 0 -457 -295 0 -457 -358 0 -457 -367 0 -457 -376 0 -457 -439 0 -457 -448 0 -458 -278 0 -458 -287 0 -458 -296 0 -458 -359 0 -458 -368 0 -458 -377 0 -458 -440 0 -458 -449 0 -459 -279 0 -459 -288 0 -459 -297 0 -459 -360 0 -459 -369 0 -459 -378 0 -459 -441 0 -459 -450 
